c THIS FORMULA IS GENERATED BY CNF
c 
c atomics
c X_PI <= 54.92_1_s:1
c X_PI <= 42.09_3_p:2
c X_PI <= 54.92_3_s:3
c X_PI <= 48.12_3_n:4
c X_PI <= 54.92_2_n:5
c X_PI <= 48.12_3_s:6
c X_PI <= 54.92_1_p:7
c X_PI <= 42.09_3_s:8
c X_PI <= 48.12_2_n:9
c X_PI <= 54.92_2_p:10
c X_PI <= 48.12_3_p:11
c X_PI <= 54.92_3_p:12
c X_PI <= 54.92_3_n:13
c X_PI <= 42.09_2_n:14
c X_PI <= 48.12_2_p:15
c C_3_1:16
c X_PI <= 42.09_1_s:17
c X_PI <= 48.12_1_p:18
c X_PI <= 48.12_2_s:19
c X_PI <= 48.12_1_s:20
c X_PI <= 42.09_1_n:21
c C_2_1:22
c X_PI <= 48.12_1_n:23
c X_PI <= 42.09_3_n:24
c X_PI <= 42.09_1_p:25
c X_PI <= 54.92_1_n:26
c X_PI <= 42.09_2_p:27
c C_1_1:28
c X_PI <= 42.09_2_s:29
c X_PI <= 54.92_2_s:30
c end atomics
p cnf 30 258
25 -25 -25 0
25 -25 -21 0
25 -25 17 0
25 21 -25 0
25 21 -21 0
25 21 17 0
25 -17 -25 0
25 -17 -21 0
25 -17 17 0
-21 -25 -25 0
-21 -25 -21 0
-21 -25 17 0
-21 21 -25 0
-21 21 -21 0
-21 21 17 0
-21 -17 -25 0
-21 -17 -21 0
-21 -17 17 0
-17 -25 -25 0
-17 -25 -21 0
-17 -25 17 0
-17 21 -25 0
-17 21 -21 0
-17 21 17 0
-17 -17 -25 0
-17 -17 -21 0
-17 -17 17 0
18 -18 -18 0
18 -18 -23 0
18 -18 20 0
18 23 -18 0
18 23 -23 0
18 23 20 0
18 -20 -18 0
18 -20 -23 0
18 -20 20 0
-23 -18 -18 0
-23 -18 -23 0
-23 -18 20 0
-23 23 -18 0
-23 23 -23 0
-23 23 20 0
-23 -20 -18 0
-23 -20 -23 0
-23 -20 20 0
-20 -18 -18 0
-20 -18 -23 0
-20 -18 20 0
-20 23 -18 0
-20 23 -23 0
-20 23 20 0
-20 -20 -18 0
-20 -20 -23 0
-20 -20 20 0
7 -7 -7 0
7 -7 -26 0
7 -7 1 0
7 26 -7 0
7 26 -26 0
7 26 1 0
7 -1 -7 0
7 -1 -26 0
7 -1 1 0
-26 -7 -7 0
-26 -7 -26 0
-26 -7 1 0
-26 26 -7 0
-26 26 -26 0
-26 26 1 0
-26 -1 -7 0
-26 -1 -26 0
-26 -1 1 0
-1 -7 -7 0
-1 -7 -26 0
-1 -7 1 0
-1 26 -7 0
-1 26 -26 0
-1 26 1 0
-1 -1 -7 0
-1 -1 -26 0
-1 -1 1 0
27 -27 -27 0
27 -27 -14 0
27 -27 29 0
27 14 -27 0
27 14 -14 0
27 14 29 0
27 -29 -27 0
27 -29 -14 0
27 -29 29 0
-14 -27 -27 0
-14 -27 -14 0
-14 -27 29 0
-14 14 -27 0
-14 14 -14 0
-14 14 29 0
-14 -29 -27 0
-14 -29 -14 0
-14 -29 29 0
-29 -27 -27 0
-29 -27 -14 0
-29 -27 29 0
-29 14 -27 0
-29 14 -14 0
-29 14 29 0
-29 -29 -27 0
-29 -29 -14 0
-29 -29 29 0
15 -15 -15 0
15 -15 -9 0
15 -15 19 0
15 9 -15 0
15 9 -9 0
15 9 19 0
15 -19 -15 0
15 -19 -9 0
15 -19 19 0
-9 -15 -15 0
-9 -15 -9 0
-9 -15 19 0
-9 9 -15 0
-9 9 -9 0
-9 9 19 0
-9 -19 -15 0
-9 -19 -9 0
-9 -19 19 0
-19 -15 -15 0
-19 -15 -9 0
-19 -15 19 0
-19 9 -15 0
-19 9 -9 0
-19 9 19 0
-19 -19 -15 0
-19 -19 -9 0
-19 -19 19 0
10 -10 -10 0
10 -10 -5 0
10 -10 30 0
10 5 -10 0
10 5 -5 0
10 5 30 0
10 -30 -10 0
10 -30 -5 0
10 -30 30 0
-5 -10 -10 0
-5 -10 -5 0
-5 -10 30 0
-5 5 -10 0
-5 5 -5 0
-5 5 30 0
-5 -30 -10 0
-5 -30 -5 0
-5 -30 30 0
-30 -10 -10 0
-30 -10 -5 0
-30 -10 30 0
-30 5 -10 0
-30 5 -5 0
-30 5 30 0
-30 -30 -10 0
-30 -30 -5 0
-30 -30 30 0
2 -2 -2 0
2 -2 -24 0
2 -2 8 0
2 24 -2 0
2 24 -24 0
2 24 8 0
2 -8 -2 0
2 -8 -24 0
2 -8 8 0
-24 -2 -2 0
-24 -2 -24 0
-24 -2 8 0
-24 24 -2 0
-24 24 -24 0
-24 24 8 0
-24 -8 -2 0
-24 -8 -24 0
-24 -8 8 0
-8 -2 -2 0
-8 -2 -24 0
-8 -2 8 0
-8 24 -2 0
-8 24 -24 0
-8 24 8 0
-8 -8 -2 0
-8 -8 -24 0
-8 -8 8 0
11 -11 -11 0
11 -11 -4 0
11 -11 6 0
11 4 -11 0
11 4 -4 0
11 4 6 0
11 -6 -11 0
11 -6 -4 0
11 -6 6 0
-4 -11 -11 0
-4 -11 -4 0
-4 -11 6 0
-4 4 -11 0
-4 4 -4 0
-4 4 6 0
-4 -6 -11 0
-4 -6 -4 0
-4 -6 6 0
-6 -11 -11 0
-6 -11 -4 0
-6 -11 6 0
-6 4 -11 0
-6 4 -4 0
-6 4 6 0
-6 -6 -11 0
-6 -6 -4 0
-6 -6 6 0
12 -12 -12 0
12 -12 -13 0
12 -12 3 0
12 13 -12 0
12 13 -13 0
12 13 3 0
12 -3 -12 0
12 -3 -13 0
12 -3 3 0
-13 -12 -12 0
-13 -12 -13 0
-13 -12 3 0
-13 13 -12 0
-13 13 -13 0
-13 13 3 0
-13 -3 -12 0
-13 -3 -13 0
-13 -3 3 0
-3 -12 -12 0
-3 -12 -13 0
-3 -12 3 0
-3 13 -12 0
-3 13 -13 0
-3 13 3 0
-3 -3 -12 0
-3 -3 -13 0
-3 -3 3 0
-17 -20 -1 0
-29 -19 -30 0
-8 -6 -3 0
21 23 26 0
14 9 5 0
24 4 13 0
-25 -28 0
-18 -28 0
-7 -28 0
-27 -22 0
-15 -22 0
-10 -22 0
-2 -16 0
-11 -16 0
-12 -16 0
28 22 16 0
